s td 147 2 180
b 1 1 109
b 2 2 85
b 3 3 75
b 4 4
b 5 5 59
b 6 6
b 7 7 98
b 8 97 98
b 9 98
b 10 8 111
b 11 9
b 12 10
b 13 11
b 14 12
b 15 24 80
b 16 24 54
b 17 53 54
b 18 13 53
b 19 13 153
b 20 14 76
b 21 15 113
b 22 16 114
b 23 17 147
b 24 147 148
b 25 18 66
b 26 18 92
b 27 19 149
b 28 20 128
b 29 21
b 30 22 124
b 31 123 124
b 32 124
b 33 23 69
b 34 69 70
b 35 25 160
b 36 25 163
b 37 26 162
b 38 161 162
b 39 162
b 40 27 63
b 41 63 64
b 42 28
b 43 29 87
b 44 87 88
b 45 30
b 46 31 103
b 47 31 129
b 48 32 100
b 49 32 104
b 50 105 106
b 51 33 105
b 52 33 152
b 53 34 90
b 54 89 90
b 55 90
b 56 35 101
b 57 35 178
b 58 36 164
b 59 37 57
b 60 37 144
b 61 38
b 62 39
b 63 40
b 64 41
b 65 42 107
b 66 42 132
b 67 43
b 68 44 146
b 69 145 146
b 70 146
b 71 45
b 72 46 96
b 73 95 96
b 74 96
b 75 47 67
b 76 47 126
b 77 48 180
b 78 49 174
b 79 173 174
b 80 174
b 81 50
b 82 51
b 83 52
b 84 55 56
b 85 58
b 86 60
b 87 61
b 88 62
b 89 65
b 90 68
b 91 71 72
b 92 73
b 93 74
b 94 77 78
b 95 79
b 96 81
b 97 82
b 98 83
b 99 84
b 100 86
b 101 91
b 102 93
b 103 94
b 104 99
b 105 102
b 106 108
b 107 110
b 108 112
b 109 115
b 110 116
b 111 117
b 112 118
b 113 119
b 114 120
b 115 121
b 116 122
b 117 125
b 118 127
b 119 130
b 120 131
b 121 133
b 122 134
b 123 135
b 124 136
b 125 137 138
b 126 139 140
b 127 141 142
b 128 143
b 129 150
b 130 151
b 131 154
b 132 155
b 133 156
b 134 157
b 135 158
b 136 159
b 137 165
b 138 166
b 139 167
b 140 168
b 141 169 170
b 142 171
b 143 172
b 144 175
b 145 176
b 146 177
b 147 179
1 2
1 3
1 4
1 5
1 6
1 7
1 10
1 11
1 12
1 13
1 14
1 15
1 20
1 21
1 22
1 23
1 25
1 27
1 28
1 29
1 30
1 33
1 35
1 37
1 40
1 42
1 43
1 45
1 46
1 48
1 50
1 53
1 56
1 58
1 59
1 61
1 62
1 63
1 64
1 65
1 67
1 68
1 71
1 72
1 75
1 77
1 78
1 81
1 82
1 83
1 84
1 85
1 86
1 87
1 88
1 89
1 90
1 91
1 92
1 93
1 94
1 95
1 96
1 97
1 98
1 99
1 100
1 101
1 102
1 103
1 104
1 105
1 106
1 107
1 108
1 109
1 110
1 111
1 112
1 113
1 114
1 115
1 116
1 117
1 118
1 119
1 120
1 121
1 122
1 123
1 124
1 125
1 126
1 127
1 128
1 129
1 130
1 131
1 132
1 133
1 134
1 135
1 136
1 137
1 138
1 139
1 140
1 141
1 142
1 143
1 144
1 145
1 146
1 147
7 9
8 9
15 16
16 17
17 18
18 19
23 24
25 26
30 32
31 32
33 34
35 36
37 39
38 39
40 41
43 44
46 47
48 49
50 51
51 52
53 55
54 55
56 57
59 60
65 66
68 70
69 70
72 74
73 74
75 76
78 80
79 80
